computational_data/solutions/C40.sol
Optimal - objective value 20.00000000
      0 r_0                         1                       1
      4 r_4                         1                       1
      8 r_8                         1                       1
     12 r_12                        1                       1
     16 r_16                        1                       1
     20 r_20                        1                       1
     24 r_24                        1                       1
     28 r_28                        1                       1
     32 r_32                        1                       1
     36 r_36                        1                       1
     42 b_2                         1                       1
     46 b_6                         1                       1
     50 b_10                        1                       1
     54 b_14                        1                       1
     58 b_18                        1                       1
     62 b_22                        1                       1
     66 b_26                        1                       1
     70 b_30                        1                       1
     74 b_34                        1                       1
     78 b_38                        1                       1
